set VV := 0 1 2 3 4 5 ;
set VS := 0 1 2 3 4 5 6 7 8 9 10 11 12 13 14 15 16 ;
param cv := 
0 23
1 20
2 25
3 19
4 11
5 11
;
param cs := 
0 20
1 22
2 30
3 25
4 38
5 26
6 34
7 32
8 35
9 30
10 24
11 38
12 31
13 37
14 23
15 28
16 40
;
param bv:	 0 1 2 3 4 5 := 
		0 0 16 14 16 16 10 
		1 0 0 0 0 0 0 
		2 0 0 0 23 0 23 
		3 0 0 0 0 0 0 
		4 0 0 0 0 0 0 
		5 0 0 0 0 0 0 
;
param bs:	 0 1 2 3 4 5 6 7 8 9 10 11 12 13 14 15 16 := 
		0 0 0 0 0 0 21 0 0 33 33 0 24 0 0 0 0 29 
		1 0 0 0 0 0 0 0 22 0 0 0 0 0 26 0 0 0 
		2 0 0 0 0 0 0 0 0 0 0 0 0 0 0 24 39 0 
		3 0 0 0 0 0 0 0 0 0 0 39 31 30 0 0 0 0 
		4 0 0 0 0 0 0 0 0 0 0 0 0 0 0 35 0 0 
		5 21 0 0 0 0 0 0 0 0 0 0 0 0 0 0 33 0 
		6 0 0 0 0 0 0 0 0 26 0 0 0 0 0 0 0 0 
		7 0 22 0 0 0 0 0 0 0 38 40 0 0 34 0 21 0 
		8 33 0 0 0 0 0 26 0 0 28 23 0 0 0 0 0 0 
		9 33 0 0 0 0 0 0 38 28 0 0 0 0 0 0 0 0 
		10 0 0 0 39 0 0 0 40 23 0 0 0 0 0 0 0 0 
		11 24 0 0 31 0 0 0 0 0 0 0 0 0 0 0 0 0 
		12 0 0 0 30 0 0 0 0 0 0 0 0 0 0 0 0 0 
		13 0 26 0 0 0 0 0 34 0 0 0 0 0 0 0 0 0 
		14 0 0 24 0 35 0 0 0 0 0 0 0 0 0 0 0 0 
		15 0 0 39 0 0 33 0 21 0 0 0 0 0 0 0 0 0 
		16 29 0 0 0 0 0 0 0 0 0 0 0 0 0 0 0 0 
;
